40
2 0 1
2 1 1
3 0 1
3 2 1
4 0 1
4 2 1
4 3 1
5 0 1
5 1 1
5 2 1
5 3 1
5 4 1
6 0 1
6 3 1
7 0 1
7 1 1
7 5 1
7 6 1
8 0 1
8 2 1
8 3 1
8 4 1
8 6 1
9 1 1
9 2 1
9 3 1
9 7 1
10 1 1
10 3 1
10 5 1
10 6 1
10 7 1
10 8 1
11 1 1
11 2 1
11 3 1
11 4 1
11 6 1
11 10 1
12 0 1
12 2 1
12 3 1
12 5 1
12 8 1
12 11 1
13 1 1
13 3 1
13 5 1
13 6 1
13 8 1
13 10 1
13 12 1
14 0 1
14 1 1
14 2 1
14 3 1
14 5 1
14 6 1
14 7 1
14 9 1
14 11 1
15 0 1
15 3 1
15 4 1
15 6 1
15 8 1
15 9 1
15 10 1
15 11 1
16 0 1
16 1 1
16 4 1
16 6 1
16 7 1
16 9 1
16 14 1
16 15 1
17 0 1
17 1 1
17 3 1
17 5 1
17 7 1
17 8 1
17 11 1
18 0 1
18 1 1
18 2 1
18 4 1
18 5 1
18 8 1
18 9 1
18 10 1
18 11 1
18 15 1
19 0 1
19 1 1
19 3 1
19 7 1
19 8 1
19 10 1
19 11 1
19 12 1
19 13 1
19 15 1
19 16 1
19 18 1
20 0 1
20 1 1
20 3 1
20 4 1
20 5 1
20 6 1
20 7 1
20 8 1
20 9 1
20 10 1
20 12 1
20 13 1
20 14 1
20 16 1
20 17 1
20 18 1
20 19 1
21 5 1
21 6 1
21 9 1
21 10 1
21 12 1
21 14 1
21 15 1
21 17 1
21 18 1
21 20 1
22 0 1
22 1 1
22 4 1
22 5 1
22 6 1
22 7 1
22 9 1
22 12 1
22 13 1
22 14 1
22 18 1
22 19 1
23 1 1
23 2 1
23 3 1
23 4 1
23 12 1
23 13 1
23 14 1
23 15 1
23 18 1
24 1 1
24 7 1
24 8 1
24 9 1
24 10 1
24 11 1
24 12 1
24 16 1
24 17 1
24 18 1
24 19 1
24 21 1
24 22 1
25 0 1
25 1 1
25 2 1
25 4 1
25 6 1
25 7 1
25 8 1
25 9 1
25 12 1
25 14 1
25 15 1
25 16 1
25 17 1
25 20 1
25 21 1
26 0 1
26 1 1
26 2 1
26 4 1
26 6 1
26 9 1
26 10 1
26 12 1
26 17 1
26 19 1
26 20 1
26 22 1
26 23 1
26 24 1
26 25 1
27 0 1
27 1 1
27 7 1
27 9 1
27 12 1
27 13 1
27 20 1
27 21 1
27 25 1
28 2 1
28 5 1
28 6 1
28 7 1
28 8 1
28 9 1
28 11 1
28 12 1
28 13 1
28 15 1
28 16 1
28 17 1
28 19 1
28 21 1
28 26 1
28 27 1
29 0 1
29 3 1
29 5 1
29 6 1
29 7 1
29 8 1
29 9 1
29 11 1
29 16 1
29 20 1
29 25 1
30 0 1
30 1 1
30 4 1
30 5 1
30 7 1
30 9 1
30 10 1
30 11 1
30 12 1
30 13 1
30 21 1
30 22 1
30 23 1
30 25 1
31 0 1
31 1 1
31 3 1
31 4 1
31 5 1
31 9 1
31 14 1
31 15 1
31 16 1
31 20 1
31 22 1
31 23 1
31 24 1
31 25 1
31 27 1
31 28 1
31 30 1
32 0 1
32 1 1
32 3 1
32 4 1
32 9 1
32 11 1
32 15 1
32 18 1
32 20 1
32 22 1
32 23 1
32 24 1
32 27 1
32 28 1
32 29 1
32 30 1
32 31 1
33 0 1
33 1 1
33 4 1
33 8 1
33 9 1
33 11 1
33 12 1
33 13 1
33 15 1
33 16 1
33 19 1
33 20 1
33 21 1
33 22 1
33 26 1
33 27 1
33 30 1
33 32 1
34 2 1
34 4 1
34 5 1
34 6 1
34 9 1
34 11 1
34 12 1
34 17 1
34 21 1
34 25 1
34 31 1
34 32 1
35 3 1
35 8 1
35 12 1
35 15 1
35 16 1
35 21 1
35 22 1
35 23 1
35 25 1
35 26 1
35 28 1
35 32 1
35 34 1
36 1 1
36 4 1
36 5 1
36 6 1
36 7 1
36 8 1
36 10 1
36 12 1
36 14 1
36 17 1
36 18 1
36 19 1
36 20 1
36 21 1
36 24 1
36 29 1
36 30 1
36 32 1
36 33 1
36 35 1
37 1 1
37 2 1
37 3 1
37 5 1
37 6 1
37 8 1
37 10 1
37 11 1
37 14 1
37 15 1
37 16 1
37 18 1
37 20 1
37 21 1
37 22 1
37 24 1
37 25 1
37 29 1
37 30 1
37 31 1
37 35 1
38 2 1
38 4 1
38 6 1
38 7 1
38 8 1
38 9 1
38 10 1
38 12 1
38 13 1
38 15 1
38 16 1
38 19 1
38 22 1
38 23 1
38 25 1
38 28 1
38 31 1
38 32 1
38 33 1
38 34 1
38 36 1
38 37 1
39 1 1
39 2 1
39 4 1
39 6 1
39 8 1
39 9 1
39 10 1
39 11 1
39 13 1
39 14 1
39 16 1
39 17 1
39 18 1
39 19 1
39 22 1
39 23 1
39 25 1
39 26 1
39 28 1
39 30 1
39 31 1
39 34 1
39 35 1
39 38 1
